NAME : XML100_1232_27
DIMENSION : 101
NB_CLUSTERS : 3
CLUSTERING_ALG : KMedoids
CLUSTERING_PARAMS : k(2)
CLUSTERS
1 0
2 1 2 4 5 6 7 8 14 16 17 21 22 23 24 27 28 29 35 38 40 41 51 56 58 65 68 69 70 72 76 77 78 79 80 81 82 89 90 91 92 94 95
3 3 9 10 11 12 13 15 18 19 20 25 26 30 31 32 33 34 36 37 39 42 43 44 45 46 47 48 49 50 52 53 54 55 57 59 60 61 62 63 64 66 67 71 73 74 75 83 84 85 86 87 88 93 96 97 98 99 100
EOF